num_bands       =  96
num_wann        =  48

#dis_froz_max = 3.82
dis_froz_max = 4.2
dis_froz_min = -14.0
dis_win_max = 12.0
dis_win_min = -15.0
dis_conv_tol = 1.0E-7
dis_conv_window = 10
dis_num_iter    = 100000
num_iter        = 0

iprint = 5
num_print_cycles = 10

write_hr = true
write_hr_diag = true
write_tb = true
write_xyz = true
guiding_centres = .true.
bands_plot = true
bands_num_points = 50
use_ws_distance = .true.
#dist_cutoff = 15

wannier_plot= true
wannier_plot_format= xcrysden
fermi_surface_plot = true
wannier_plot_supercell = 1

begin kpoint_path
G 0.0 0.0 0.0  X 0.0 0.5 0.0
X 0.0 0.5 0.0  M 0.5 0.5 0.0
M 0.5 0.5 0.0  G 0.0 0.0 0.0
G 0.0 0.0 0.0  Z 0.0 0.0 0.5
Z 0.0 0.0 0.5  R 0.0 0.5 0.5
R 0.0 0.5 0.5  A 0.5 0.5 0.5
A 0.5 0.5 0.5  Z 0.0 0.0 0.5
Z 0.0 0.0 0.5  X 0.0 0.5 0.0
X 0.0 0.5 0.0  R 0.0 0.5 0.5
end kpoint_path

begin projections
#Si:l=0;l=1,mr=1,2,3
#Si:sp3
c=0.059913347,5.156859423,11.753741637:sp3
c=2.546977200,2.669795428,11.753741637:sp3
c=1.781657234,0.867206044,13.087903917:sp3
c=1.003389709,3.613271854,10.185771101:l=1,mr=1;sp2
#c=1.003389709,3.613271854,10.185771101:sp2
c=3.468053997,4.382505186,13.087903917:sp3
c=4.695770710,2.085888489,11.003870385:l=1,mr=1;sp2
#c=4.695770710,2.085888489,11.003870385:sp2
c=5.156863386,0.059912293,16.402604604:sp3
c=2.669794374,2.546981164,16.402604604:sp3
c=0.867206495,1.781658184,15.068443500:sp3
c=3.613274944,1.003392799,17.970562071:l=1,mr=1;sp2
#c=3.613274944,1.003392799,17.970562071:sp2
c=4.382506136,3.468054448,15.068443500:sp3
c=2.085889215,4.695771436,17.152481153:l=1,mr=1;sp2
#c=2.085889215,4.695771436,17.152481153:sp2
end projections

Begin Unit_Cell_Cart
5.2220802307         0.0000000000         0.0000000000
0.0000000000         5.2220802307         0.0000000000
0.0000000000         0.0000000000        30.0000000000
End Unit_Cell_Cart

begin atoms_cart
Angstrom
Si       0.069826086   5.170221262  11.758322234
Si       2.559181146   2.680866060  11.758322234
Si       1.788210225   0.873537205  13.087701344
Si       1.006817301   3.617857339  10.195564638
Si       3.484577321   4.399250340  13.087701344
Si       4.709342954   2.098302839  11.010578333
Si       5.170226377   0.069824203  16.398023564
Si       2.680864177   2.559186261  16.398023564
Si       0.873537588   1.788211451  15.068646469
Si       3.617860068   1.006820030  17.960762522
Si       4.399251566   3.484577704  15.068646469
Si       2.098301320   4.709341435  17.145779311
End atoms_cart

mp_grid : 15 15 1

begin kpoints
  0.00000000  0.00000000  0.00000000 
  0.00000000  0.06666667  0.00000000
  0.00000000  0.13333333  0.00000000
  0.00000000  0.20000000  0.00000000
  0.00000000  0.26666667  0.00000000
  0.00000000  0.33333333  0.00000000
  0.00000000  0.40000000  0.00000000
  0.00000000  0.46666667  0.00000000
  0.00000000  0.53333333  0.00000000
  0.00000000  0.60000000  0.00000000
  0.00000000  0.66666667  0.00000000
  0.00000000  0.73333333  0.00000000
  0.00000000  0.80000000  0.00000000
  0.00000000  0.86666667  0.00000000
  0.00000000  0.93333333  0.00000000
  0.06666667  0.00000000  0.00000000
  0.06666667  0.06666667  0.00000000
  0.06666667  0.13333333  0.00000000
  0.06666667  0.20000000  0.00000000
  0.06666667  0.26666667  0.00000000
  0.06666667  0.33333333  0.00000000
  0.06666667  0.40000000  0.00000000
  0.06666667  0.46666667  0.00000000
  0.06666667  0.53333333  0.00000000
  0.06666667  0.60000000  0.00000000
  0.06666667  0.66666667  0.00000000
  0.06666667  0.73333333  0.00000000
  0.06666667  0.80000000  0.00000000
  0.06666667  0.86666667  0.00000000
  0.06666667  0.93333333  0.00000000
  0.13333333  0.00000000  0.00000000
  0.13333333  0.06666667  0.00000000
  0.13333333  0.13333333  0.00000000
  0.13333333  0.20000000  0.00000000
  0.13333333  0.26666667  0.00000000
  0.13333333  0.33333333  0.00000000
  0.13333333  0.40000000  0.00000000
  0.13333333  0.46666667  0.00000000
  0.13333333  0.53333333  0.00000000
  0.13333333  0.60000000  0.00000000
  0.13333333  0.66666667  0.00000000
  0.13333333  0.73333333  0.00000000
  0.13333333  0.80000000  0.00000000
  0.13333333  0.86666667  0.00000000
  0.13333333  0.93333333  0.00000000
  0.20000000  0.00000000  0.00000000
  0.20000000  0.06666667  0.00000000
  0.20000000  0.13333333  0.00000000
  0.20000000  0.20000000  0.00000000
  0.20000000  0.26666667  0.00000000
  0.20000000  0.33333333  0.00000000
  0.20000000  0.40000000  0.00000000
  0.20000000  0.46666667  0.00000000
  0.20000000  0.53333333  0.00000000
  0.20000000  0.60000000  0.00000000
  0.20000000  0.66666667  0.00000000
  0.20000000  0.73333333  0.00000000
  0.20000000  0.80000000  0.00000000
  0.20000000  0.86666667  0.00000000
  0.20000000  0.93333333  0.00000000
  0.26666667  0.00000000  0.00000000
  0.26666667  0.06666667  0.00000000
  0.26666667  0.13333333  0.00000000
  0.26666667  0.20000000  0.00000000
  0.26666667  0.26666667  0.00000000
  0.26666667  0.33333333  0.00000000
  0.26666667  0.40000000  0.00000000
  0.26666667  0.46666667  0.00000000
  0.26666667  0.53333333  0.00000000
  0.26666667  0.60000000  0.00000000
  0.26666667  0.66666667  0.00000000
  0.26666667  0.73333333  0.00000000
  0.26666667  0.80000000  0.00000000
  0.26666667  0.86666667  0.00000000
  0.26666667  0.93333333  0.00000000
  0.33333333  0.00000000  0.00000000
  0.33333333  0.06666667  0.00000000
  0.33333333  0.13333333  0.00000000
  0.33333333  0.20000000  0.00000000
  0.33333333  0.26666667  0.00000000
  0.33333333  0.33333333  0.00000000
  0.33333333  0.40000000  0.00000000
  0.33333333  0.46666667  0.00000000
  0.33333333  0.53333333  0.00000000
  0.33333333  0.60000000  0.00000000
  0.33333333  0.66666667  0.00000000
  0.33333333  0.73333333  0.00000000
  0.33333333  0.80000000  0.00000000
  0.33333333  0.86666667  0.00000000
  0.33333333  0.93333333  0.00000000
  0.40000000  0.00000000  0.00000000
  0.40000000  0.06666667  0.00000000
  0.40000000  0.13333333  0.00000000
  0.40000000  0.20000000  0.00000000
  0.40000000  0.26666667  0.00000000
  0.40000000  0.33333333  0.00000000
  0.40000000  0.40000000  0.00000000
  0.40000000  0.46666667  0.00000000
  0.40000000  0.53333333  0.00000000
  0.40000000  0.60000000  0.00000000
  0.40000000  0.66666667  0.00000000
  0.40000000  0.73333333  0.00000000
  0.40000000  0.80000000  0.00000000
  0.40000000  0.86666667  0.00000000
  0.40000000  0.93333333  0.00000000
  0.46666667  0.00000000  0.00000000
  0.46666667  0.06666667  0.00000000
  0.46666667  0.13333333  0.00000000
  0.46666667  0.20000000  0.00000000
  0.46666667  0.26666667  0.00000000
  0.46666667  0.33333333  0.00000000
  0.46666667  0.40000000  0.00000000
  0.46666667  0.46666667  0.00000000
  0.46666667  0.53333333  0.00000000
  0.46666667  0.60000000  0.00000000
  0.46666667  0.66666667  0.00000000
  0.46666667  0.73333333  0.00000000
  0.46666667  0.80000000  0.00000000
  0.46666667  0.86666667  0.00000000
  0.46666667  0.93333333  0.00000000
  0.53333333  0.00000000  0.00000000
  0.53333333  0.06666667  0.00000000
  0.53333333  0.13333333  0.00000000
  0.53333333  0.20000000  0.00000000
  0.53333333  0.26666667  0.00000000
  0.53333333  0.33333333  0.00000000
  0.53333333  0.40000000  0.00000000
  0.53333333  0.46666667  0.00000000
  0.53333333  0.53333333  0.00000000
  0.53333333  0.60000000  0.00000000
  0.53333333  0.66666667  0.00000000
  0.53333333  0.73333333  0.00000000
  0.53333333  0.80000000  0.00000000
  0.53333333  0.86666667  0.00000000
  0.53333333  0.93333333  0.00000000
  0.60000000  0.00000000  0.00000000
  0.60000000  0.06666667  0.00000000
  0.60000000  0.13333333  0.00000000
  0.60000000  0.20000000  0.00000000
  0.60000000  0.26666667  0.00000000
  0.60000000  0.33333333  0.00000000
  0.60000000  0.40000000  0.00000000
  0.60000000  0.46666667  0.00000000
  0.60000000  0.53333333  0.00000000
  0.60000000  0.60000000  0.00000000
  0.60000000  0.66666667  0.00000000
  0.60000000  0.73333333  0.00000000
  0.60000000  0.80000000  0.00000000
  0.60000000  0.86666667  0.00000000
  0.60000000  0.93333333  0.00000000
  0.66666667  0.00000000  0.00000000
  0.66666667  0.06666667  0.00000000
  0.66666667  0.13333333  0.00000000
  0.66666667  0.20000000  0.00000000
  0.66666667  0.26666667  0.00000000
  0.66666667  0.33333333  0.00000000
  0.66666667  0.40000000  0.00000000
  0.66666667  0.46666667  0.00000000
  0.66666667  0.53333333  0.00000000
  0.66666667  0.60000000  0.00000000
  0.66666667  0.66666667  0.00000000
  0.66666667  0.73333333  0.00000000
  0.66666667  0.80000000  0.00000000
  0.66666667  0.86666667  0.00000000
  0.66666667  0.93333333  0.00000000
  0.73333333  0.00000000  0.00000000
  0.73333333  0.06666667  0.00000000
  0.73333333  0.13333333  0.00000000
  0.73333333  0.20000000  0.00000000
  0.73333333  0.26666667  0.00000000
  0.73333333  0.33333333  0.00000000
  0.73333333  0.40000000  0.00000000
  0.73333333  0.46666667  0.00000000
  0.73333333  0.53333333  0.00000000
  0.73333333  0.60000000  0.00000000
  0.73333333  0.66666667  0.00000000
  0.73333333  0.73333333  0.00000000
  0.73333333  0.80000000  0.00000000
  0.73333333  0.86666667  0.00000000
  0.73333333  0.93333333  0.00000000
  0.80000000  0.00000000  0.00000000
  0.80000000  0.06666667  0.00000000
  0.80000000  0.13333333  0.00000000
  0.80000000  0.20000000  0.00000000
  0.80000000  0.26666667  0.00000000
  0.80000000  0.33333333  0.00000000
  0.80000000  0.40000000  0.00000000
  0.80000000  0.46666667  0.00000000
  0.80000000  0.53333333  0.00000000
  0.80000000  0.60000000  0.00000000
  0.80000000  0.66666667  0.00000000
  0.80000000  0.73333333  0.00000000
  0.80000000  0.80000000  0.00000000
  0.80000000  0.86666667  0.00000000
  0.80000000  0.93333333  0.00000000
  0.86666667  0.00000000  0.00000000
  0.86666667  0.06666667  0.00000000
  0.86666667  0.13333333  0.00000000
  0.86666667  0.20000000  0.00000000
  0.86666667  0.26666667  0.00000000
  0.86666667  0.33333333  0.00000000
  0.86666667  0.40000000  0.00000000
  0.86666667  0.46666667  0.00000000
  0.86666667  0.53333333  0.00000000
  0.86666667  0.60000000  0.00000000
  0.86666667  0.66666667  0.00000000
  0.86666667  0.73333333  0.00000000
  0.86666667  0.80000000  0.00000000
  0.86666667  0.86666667  0.00000000
  0.86666667  0.93333333  0.00000000
  0.93333333  0.00000000  0.00000000
  0.93333333  0.06666667  0.00000000
  0.93333333  0.13333333  0.00000000
  0.93333333  0.20000000  0.00000000
  0.93333333  0.26666667  0.00000000
  0.93333333  0.33333333  0.00000000
  0.93333333  0.40000000  0.00000000
  0.93333333  0.46666667  0.00000000
  0.93333333  0.53333333  0.00000000
  0.93333333  0.60000000  0.00000000
  0.93333333  0.66666667  0.00000000
  0.93333333  0.73333333  0.00000000
  0.93333333  0.80000000  0.00000000
  0.93333333  0.86666667  0.00000000
  0.93333333  0.93333333  0.00000000
end kpoints


